%mem=20GB
%NProcShared=10
#P wb97xd/6-31g*
# SCF=(xqc)
# POpt=()
# int=ultrafine
# Freq

comment: 

0 1
O  
C  1    R1 
X  2    R2  1    A2 
O  2    R3  3    A3  1    D3 
 Variables:
R1   =   1.405000
R3   =   1.405001
 Constants:
R2   =   1.000000
A2   =  90.000000
A3   =  90.000000
D3   = 179.999798

