%mem=1GB                                                                        
%NProcShared=10                                                                 
#P m062x/cc-pvdz                                                                
# SCF=(xqc)                                                                     
# Force=()                                                                      
# int=ultrafine                                                                 
# fchk NoSym guess=mix                                                          
                                                                                
comment:                                                                        
                                                                                
0 3                                                                             
O           1.1970098436       -0.2360203608        0.0357600023
C           0.0801024687        0.4359899857       -0.0728144885
C          -1.2269644638       -0.2296510961       -0.0194982074
H           0.0798242667        1.3246394315       -0.7491405995
H          -0.0885893819        0.9382926465        0.9590452116
H          -1.2875319808       -1.2576929270        0.3431258547
H          -2.1386037525        0.3527833201       -0.1633917732
  Variables:                                                                    
                                                                                
